
GUB cover cuts applied:  4
Clique cuts applied:  1
Cover cuts applied:  3
Implied bound cuts applied:  9
Mixed integer rounding cuts applied:  1
Zero-half cuts applied:  12
Lift and project cuts applied:  1
Gomory fractional cuts applied:  1

Root node processing (before b&c):
  Real time             =    0.04 sec. (19.14 ticks)
Parallel b&c, 4 threads:
  Real time             =    0.00 sec. (0.00 ticks)
  Sync time (average)   =    0.00 sec.
  Wait time (average)   =    0.00 sec.
                          ------------
Total (root+branch&cut) =    0.04 sec. (19.14 ticks)
Version identifier: 12.10.0.0 | 2019-11-26 | 843d4de
CPXPARAM_MIP_Interval                            10
CPXPARAM_MIP_Tolerances_AbsMIPGap                0.98999999999999999
Tried aggregator 2 times.
MIP Presolve eliminated 1186 rows and 536 columns.
MIP Presolve added 4 rows and 0 columns.
MIP Presolve modified 78 coefficients.
Aggregator did 11 substitutions.
Reduced MIP has 489 rows, 100 columns, and 1180 nonzeros.
Reduced MIP has 77 binaries, 23 generals, 0 SOSs, and 0 indicators.
Presolve time = 0.00 sec. (2.91 ticks)
Probing fixed 0 vars, tightened 7 bounds.
Probing time = 0.00 sec. (0.25 ticks)
Cover probing fixed 0 vars, tightened 12 bounds.
Tried aggregator 1 time.
Detecting symmetries...
MIP Presolve eliminated 296 rows and 0 columns.
MIP Presolve modified 13 coefficients.
Reduced MIP has 193 rows, 100 columns, and 588 nonzeros.
Reduced MIP has 77 binaries, 23 generals, 0 SOSs, and 0 indicators.
Presolve time = 0.00 sec. (0.61 ticks)
Probing fixed 0 vars, tightened 5 bounds.
Probing time = 0.00 sec. (0.13 ticks)
Cover probing fixed 0 vars, tightened 10 bounds.
Clique table members: 143.
MIP emphasis: balance optimality and feasibility.
MIP search method: dynamic search.
Parallel mode: deterministic, using up to 4 threads.
Root relaxation solution time = 0.00 sec. (0.68 ticks)

        Nodes                                         Cuts/
   Node  Left     Objective  IInf  Best Integer    Best Bound    ItCnt     Gap

      0     0       15.3333    29                     15.3333       95         
      0     0       15.3333    29                     Cuts: 6      123         
      0     0       15.2381    29                     Cuts: 4      151         
      0     0       15.0714    29                    Cuts: 46      207         
      0     0       14.9941    29                    Cuts: 43      257         
      0     0       14.9886    29                    Cuts: 32      280         
Detecting symmetries...
      0     0       14.9875    29                    Cuts: 26      295         
      0     0       14.9722    29                    Cuts: 16      318         
      0     0       14.9444    29                    Cuts: 42      358         
      0     0       14.7778    29                    Cuts: 38      402         
      0     0       14.7778    29                    Cuts: 27      428         
*     0+    0                           14.0000       14.7778             5.56%
      0     0        cutoff             14.0000                    428     --- 
Elapsed time = 0.05 sec. (43.89 ticks, tree = 0.01 MB, solutions = 1)
the number of Nodes = 0
